Version identifier: 20.1.0.0 | 2020-11-10 | 9bedb6d68
Found incumbent of value 0.000000 after 0.00 sec. (0.00 ticks)
Tried aggregator 2 times.
MIP Presolve eliminated 98 rows and 44 columns.
MIP Presolve modified 20 coefficients.
Aggregator did 40 substitutions.
Reduced MIP has 27 rows, 29 columns, and 92 nonzeros.
Reduced MIP has 21 binaries, 0 generals, 0 SOSs, and 8 indicators.
Presolve time = 0.00 sec. (0.37 ticks)
Probing fixed 0 vars, tightened 4 bounds.
Probing changed sense of 4 constraints.
Probing time = 0.00 sec. (0.04 ticks)
Tried aggregator 1 time.
MIP Presolve eliminated 22 rows and 22 columns.
MIP Presolve modified 53 coefficients.
Reduced MIP has 5 rows, 7 columns, and 20 nonzeros.
Reduced MIP has 7 binaries, 0 generals, 0 SOSs, and 0 indicators.
Presolve time = 0.00 sec. (0.11 ticks)
Probing time = 0.00 sec. (0.00 ticks)
Tried aggregator 1 time.
MIP Presolve eliminated 3 rows and 4 columns.
MIP Presolve modified 5 coefficients.
Reduced MIP has 2 rows, 3 columns, and 4 nonzeros.
Reduced MIP has 3 binaries, 0 generals, 0 SOSs, and 0 indicators.
Presolve time = 0.00 sec. (0.02 ticks)
Probing time = 0.00 sec. (0.00 ticks)
Tried aggregator 1 time.
MIP Presolve eliminated 2 rows and 3 columns.
All rows and columns eliminated.
Presolve time = 0.00 sec. (0.00 ticks)

Root node processing (before b&c):
  Real time             =    0.01 sec. (0.61 ticks)
Parallel b&c, 10 threads:
  Real time             =    0.00 sec. (0.00 ticks)
  Sync time (average)   =    0.00 sec.
  Wait time (average)   =    0.00 sec.
                          ------------
Total (root+branch&cut) =    0.01 sec. (0.61 ticks)
